NAME : kroA100-C-3-1-a__cluster__25923.tour
COMMENT : Length = 25923.000
COMMENT : Generated by compare_sota_instances.py for cluster
TYPE : TOUR
DIMENSION : 100
TOUR_SECTION
93
28
47
91
32
17
15
11
74
59
21
72
36
99
38
24
18
10
84
79
94
22
16
70
88
53
90
6
49
63
1
92
19
75
4
66
65
26
97
56
80
31
89
42
8
67
58
61
81
25
87
51
9
7
57
77
98
23
45
60
62
35
86
27
20
12
55
83
34
29
46
43
3
71
41
100
14
48
30
52
96
78
39
85
68
73
44
50
37
5
33
76
13
95
82
2
54
40
64
69
-1
EOF
